23
4gih_blocker
C         -2.02280       21.38260      -27.20560
C         -3.36470       21.05220      -27.44790
C         -4.05030       21.59240      -28.55030
C         -3.39140       22.47920      -29.43830
C         -2.05020       22.85380      -29.15250
C         -1.37520       22.30420      -28.04320
Cl        -1.18060       23.97060      -30.13810
C         -4.10330       22.95810      -30.67760
O         -4.47190       22.14570      -31.52350
N         -4.29110       24.28800      -30.75750
C         -5.09300       25.04150      -31.66060
C         -5.82160       24.51290      -32.74970
C         -6.62430       25.38780      -33.50270
N         -6.70710       26.71250      -33.26400
C         -5.99730       27.24290      -32.24300
C         -5.19670       26.42150      -31.41180
N         -6.11860       28.63580      -31.99420
C         -5.29060       29.47420      -31.34460
O         -4.23290       29.13460      -30.81370
C         -5.76180       30.88870      -31.33460
C         -5.51690       31.71930      -30.09390
C         -4.70580       31.97620      -31.33700
Cl        -5.71320       21.16780      -28.75880
