23
4GIH
C         -5.22500       -3.75700      -16.00300
C         -6.59200       -3.62600      -15.82500
C         -7.36300       -4.75600      -15.58700
C         -6.76800       -6.02900      -15.49600
C         -5.37900       -6.15300      -15.68800
C         -4.62200       -5.01200      -15.93500
Cl        -4.58100       -7.69600      -15.67700
C         -7.64800       -7.16900      -15.16300
O         -8.14000       -7.21600      -14.03100
N         -7.91500       -8.07800      -16.11600
C         -8.76200       -9.18600      -16.02800
C         -9.57600       -9.51400      -14.92300
C        -10.44800      -10.59600      -15.03300
N        -10.48400      -11.32300      -16.14900
C         -9.72800      -11.06100      -17.21600 
C         -8.86400       -9.96300      -17.18100 
N         -9.83200      -11.87700      -18.36400 
C         -8.87500      -11.98000      -19.33600 
O         -7.84200      -11.33900      -19.27100 
C         -9.09400      -12.90300      -20.52800 
C         -8.44800      -12.54300      -21.87300 
C         -7.90000      -13.70900      -21.05500 
Cl        -9.07800       -4.60200      -15.44700
